\ENCODING=ISO-8859-1
\Problem name: IloCplex

Minimize
 obj1: 80 x1 + 90 x2 - 70 x3 + 80 x4 + 90 x5 - 70 x6 + 80 x7 + 90 x8 - 70 x9
       + 80 x10 + 90 x11 - 70 x12 + 80 x13 + 90 x14 - 70 x15 + 80 x16 + 90 x17
       - 70 x18 + 80 x19 + 110 x20 - 90 x21 + 80 x22 + 110 x23 - 90 x24
       + 80 x25 + 110 x26 - 90 x27 + 80 x28 + 110 x29 - 90 x30 + 80 x31
       + 110 x32 - 90 x33 + 80 x34 + 125 x35 - 105 x36 + 80 x37 + 125 x38
       - 105 x39 + 80 x40 + 125 x41 - 105 x42 + 80 x43 + 125 x44 - 105 x45
       + 80 x46 + 125 x47 - 105 x48 + 80 x49 + 125 x50 - 105 x51 + 80 x52
       + 125 x53 - 105 x54 + 80 x55 + 110 x56 - 90 x57 + 80 x58 + 110 x59
       - 90 x60 + 80 x61 + 110 x62 - 90 x63 + 80 x64 + 110 x65 - 90 x66
       + 80 x67 + 110 x68 - 90 x69 + 80 x70 + 110 x71 - 90 x72 + 80 x73
       + 90 x74 - 70 x75 + 80 x76 + 90 x77 - 70 x78 + 80 x79 + 90 x80 - 70 x81
       + 80 x82 + 90 x83 - 70 x84 + 80 x85 + 90 x86 - 70 x87 + 80 x88 + 90 x89
       - 70 x90 + 80 x91 + 110 x92 - 90 x93 + 80 x94 + 110 x95 - 90 x96
       + 80 x97 + 110 x98 - 90 x99 + 80 x100 + 110 x101 - 90 x102 + 80 x103
       + 110 x104 - 90 x105 + 80 x106 + 125 x107 - 105 x108 + 80 x109
       + 125 x110 - 105 x111 + 80 x112 + 125 x113 - 105 x114 + 80 x115
       + 125 x116 - 105 x117 + 80 x118 + 125 x119 - 105 x120 + 80 x121
       + 125 x122 - 105 x123 + 80 x124 + 125 x125 - 105 x126 + 80 x127
       + 110 x128 - 90 x129 + 80 x130 + 110 x131 - 90 x132 + 80 x133 + 110 x134
       - 90 x135 + 80 x136 + 110 x137 - 90 x138 + 80 x139 + 110 x140 - 90 x141
       + 80 x142 + 110 x143 - 90 x144
Subject To
 c1:   x1 >= 50
 c2:   x1 <= 150
 c3:   x145 <= 50
 c4:   x146 <= 50
 c5:   x145 >= 0
 c6:   x146 >= 0
 c7:   x2 >= 0
 c8:   x3 >= 0
 c9:   x147 <= 1
 c10:  x147 >= 0
 c11:  x4 >= 50
 c12:  x4 <= 150
 c13:  x148 <= 50
 c14:  x149 <= 50
 c15:  x148 >= 0
 c16:  x149 >= 0
 c17:  x5 >= 0
 c18:  x6 >= 0
 c19:  x150 <= 1
 c20:  x150 >= 0
 c21:  x7 >= 50
 c22:  x7 <= 150
 c23:  x151 <= 50
 c24:  x152 <= 50
 c25:  x151 >= 0
 c26:  x152 >= 0
 c27:  x8 >= 0
 c28:  x9 >= 0
 c29:  x153 <= 1
 c30:  x153 >= 0
 c31:  x10 >= 50
 c32:  x10 <= 150
 c33:  x154 <= 50
 c34:  x155 <= 50
 c35:  x154 >= 0
 c36:  x155 >= 0
 c37:  x11 >= 0
 c38:  x12 >= 0
 c39:  x156 <= 1
 c40:  x156 >= 0
 c41:  x13 >= 50
 c42:  x13 <= 150
 c43:  x157 <= 50
 c44:  x158 <= 50
 c45:  x157 >= 0
 c46:  x158 >= 0
 c47:  x14 >= 0
 c48:  x15 >= 0
 c49:  x159 <= 1
 c50:  x159 >= 0
 c51:  x16 >= 50
 c52:  x16 <= 150
 c53:  x160 <= 50
 c54:  x161 <= 50
 c55:  x160 >= 0
 c56:  x161 >= 0
 c57:  x17 >= 0
 c58:  x18 >= 0
 c59:  x162 <= 1
 c60:  x162 >= 0
 c61:  x19 >= 50
 c62:  x19 <= 150
 c63:  x163 <= 50
 c64:  x164 <= 50
 c65:  x163 >= 0
 c66:  x164 >= 0
 c67:  x20 >= 0
 c68:  x21 >= 0
 c69:  x165 <= 1
 c70:  x165 >= 0
 c71:  x22 >= 50
 c72:  x22 <= 150
 c73:  x166 <= 50
 c74:  x167 <= 50
 c75:  x166 >= 0
 c76:  x167 >= 0
 c77:  x23 >= 0
 c78:  x24 >= 0
 c79:  x168 <= 1
 c80:  x168 >= 0
 c81:  x25 >= 50
 c82:  x25 <= 150
 c83:  x169 <= 50
 c84:  x170 <= 50
 c85:  x169 >= 0
 c86:  x170 >= 0
 c87:  x26 >= 0
 c88:  x27 >= 0
 c89:  x171 <= 1
 c90:  x171 >= 0
 c91:  x28 >= 50
 c92:  x28 <= 150
 c93:  x172 <= 50
 c94:  x173 <= 50
 c95:  x172 >= 0
 c96:  x173 >= 0
 c97:  x29 >= 0
 c98:  x30 >= 0
 c99:  x174 <= 1
 c100: x174 >= 0
 c101: x31 >= 50
 c102: x31 <= 150
 c103: x175 <= 50
 c104: x176 <= 50
 c105: x175 >= 0
 c106: x176 >= 0
 c107: x32 >= 0
 c108: x33 >= 0
 c109: x177 <= 1
 c110: x177 >= 0
 c111: x34 >= 50
 c112: x34 <= 150
 c113: x178 <= 50
 c114: x179 <= 50
 c115: x178 >= 0
 c116: x179 >= 0
 c117: x35 >= 0
 c118: x36 >= 0
 c119: x180 <= 1
 c120: x180 >= 0
 c121: x37 >= 50
 c122: x37 <= 150
 c123: x181 <= 50
 c124: x182 <= 50
 c125: x181 >= 0
 c126: x182 >= 0
 c127: x38 >= 0
 c128: x39 >= 0
 c129: x183 <= 1
 c130: x183 >= 0
 c131: x40 >= 50
 c132: x40 <= 150
 c133: x184 <= 50
 c134: x185 <= 50
 c135: x184 >= 0
 c136: x185 >= 0
 c137: x41 >= 0
 c138: x42 >= 0
 c139: x186 <= 1
 c140: x186 >= 0
 c141: x43 >= 50
 c142: x43 <= 150
 c143: x187 <= 50
 c144: x188 <= 50
 c145: x187 >= 0
 c146: x188 >= 0
 c147: x44 >= 0
 c148: x45 >= 0
 c149: x189 <= 1
 c150: x189 >= 0
 c151: x46 >= 50
 c152: x46 <= 150
 c153: x190 <= 50
 c154: x191 <= 50
 c155: x190 >= 0
 c156: x191 >= 0
 c157: x47 >= 0
 c158: x48 >= 0
 c159: x192 <= 1
 c160: x192 >= 0
 c161: x49 >= 50
 c162: x49 <= 150
 c163: x193 <= 50
 c164: x194 <= 50
 c165: x193 >= 0
 c166: x194 >= 0
 c167: x50 >= 0
 c168: x51 >= 0
 c169: x195 <= 1
 c170: x195 >= 0
 c171: x52 >= 50
 c172: x52 <= 150
 c173: x196 <= 50
 c174: x197 <= 50
 c175: x196 >= 0
 c176: x197 >= 0
 c177: x53 >= 0
 c178: x54 >= 0
 c179: x198 <= 1
 c180: x198 >= 0
 c181: x55 >= 50
 c182: x55 <= 150
 c183: x199 <= 50
 c184: x200 <= 50
 c185: x199 >= 0
 c186: x200 >= 0
 c187: x56 >= 0
 c188: x57 >= 0
 c189: x201 <= 1
 c190: x201 >= 0
 c191: x58 >= 50
 c192: x58 <= 150
 c193: x202 <= 50
 c194: x203 <= 50
 c195: x202 >= 0
 c196: x203 >= 0
 c197: x59 >= 0
 c198: x60 >= 0
 c199: x204 <= 1
 c200: x204 >= 0
 c201: x61 >= 50
 c202: x61 <= 150
 c203: x205 <= 50
 c204: x206 <= 50
 c205: x205 >= 0
 c206: x206 >= 0
 c207: x62 >= 0
 c208: x63 >= 0
 c209: x207 <= 1
 c210: x207 >= 0
 c211: x64 >= 50
 c212: x64 <= 150
 c213: x208 <= 50
 c214: x209 <= 50
 c215: x208 >= 0
 c216: x209 >= 0
 c217: x65 >= 0
 c218: x66 >= 0
 c219: x210 <= 1
 c220: x210 >= 0
 c221: x67 >= 50
 c222: x67 <= 150
 c223: x211 <= 50
 c224: x212 <= 50
 c225: x211 >= 0
 c226: x212 >= 0
 c227: x68 >= 0
 c228: x69 >= 0
 c229: x213 <= 1
 c230: x213 >= 0
 c231: x70 >= 50
 c232: x70 <= 150
 c233: x214 <= 50
 c234: x215 <= 50
 c235: x214 >= 0
 c236: x215 >= 0
 c237: x71 >= 0
 c238: x72 >= 0
 c239: x216 <= 1
 c240: x216 >= 0
 c241: x73 >= 50
 c242: x73 <= 150
 c243: x217 <= 50
 c244: x218 <= 50
 c245: x217 >= 0
 c246: x218 >= 0
 c247: x74 >= 0
 c248: x75 >= 0
 c249: x219 <= 1
 c250: x219 >= 0
 c251: x76 >= 50
 c252: x76 <= 150
 c253: x220 <= 50
 c254: x221 <= 50
 c255: x220 >= 0
 c256: x221 >= 0
 c257: x77 >= 0
 c258: x78 >= 0
 c259: x222 <= 1
 c260: x222 >= 0
 c261: x79 >= 50
 c262: x79 <= 150
 c263: x223 <= 50
 c264: x224 <= 50
 c265: x223 >= 0
 c266: x224 >= 0
 c267: x80 >= 0
 c268: x81 >= 0
 c269: x225 <= 1
 c270: x225 >= 0
 c271: x82 >= 50
 c272: x82 <= 150
 c273: x226 <= 50
 c274: x227 <= 50
 c275: x226 >= 0
 c276: x227 >= 0
 c277: x83 >= 0
 c278: x84 >= 0
 c279: x228 <= 1
 c280: x228 >= 0
 c281: x85 >= 50
 c282: x85 <= 150
 c283: x229 <= 50
 c284: x230 <= 50
 c285: x229 >= 0
 c286: x230 >= 0
 c287: x86 >= 0
 c288: x87 >= 0
 c289: x231 <= 1
 c290: x231 >= 0
 c291: x88 >= 50
 c292: x88 <= 150
 c293: x232 <= 50
 c294: x233 <= 50
 c295: x232 >= 0
 c296: x233 >= 0
 c297: x89 >= 0
 c298: x90 >= 0
 c299: x234 <= 1
 c300: x234 >= 0
 c301: x91 >= 50
 c302: x91 <= 150
 c303: x235 <= 50
 c304: x236 <= 50
 c305: x235 >= 0
 c306: x236 >= 0
 c307: x92 >= 0
 c308: x93 >= 0
 c309: x237 <= 1
 c310: x237 >= 0
 c311: x94 >= 50
 c312: x94 <= 150
 c313: x238 <= 50
 c314: x239 <= 50
 c315: x238 >= 0
 c316: x239 >= 0
 c317: x95 >= 0
 c318: x96 >= 0
 c319: x240 <= 1
 c320: x240 >= 0
 c321: x97 >= 50
 c322: x97 <= 150
 c323: x241 <= 50
 c324: x242 <= 50
 c325: x241 >= 0
 c326: x242 >= 0
 c327: x98 >= 0
 c328: x99 >= 0
 c329: x243 <= 1
 c330: x243 >= 0
 c331: x100 >= 50
 c332: x100 <= 150
 c333: x244 <= 50
 c334: x245 <= 50
 c335: x244 >= 0
 c336: x245 >= 0
 c337: x101 >= 0
 c338: x102 >= 0
 c339: x246 <= 1
 c340: x246 >= 0
 c341: x103 >= 50
 c342: x103 <= 150
 c343: x247 <= 50
 c344: x248 <= 50
 c345: x247 >= 0
 c346: x248 >= 0
 c347: x104 >= 0
 c348: x105 >= 0
 c349: x249 <= 1
 c350: x249 >= 0
 c351: x106 >= 50
 c352: x106 <= 150
 c353: x250 <= 50
 c354: x251 <= 50
 c355: x250 >= 0
 c356: x251 >= 0
 c357: x107 >= 0
 c358: x108 >= 0
 c359: x252 <= 1
 c360: x252 >= 0
 c361: x109 >= 50
 c362: x109 <= 150
 c363: x253 <= 50
 c364: x254 <= 50
 c365: x253 >= 0
 c366: x254 >= 0
 c367: x110 >= 0
 c368: x111 >= 0
 c369: x255 <= 1
 c370: x255 >= 0
 c371: x112 >= 50
 c372: x112 <= 150
 c373: x256 <= 50
 c374: x257 <= 50
 c375: x256 >= 0
 c376: x257 >= 0
 c377: x113 >= 0
 c378: x114 >= 0
 c379: x258 <= 1
 c380: x258 >= 0
 c381: x115 >= 50
 c382: x115 <= 150
 c383: x259 <= 50
 c384: x260 <= 50
 c385: x259 >= 0
 c386: x260 >= 0
 c387: x116 >= 0
 c388: x117 >= 0
 c389: x261 <= 1
 c390: x261 >= 0
 c391: x118 >= 50
 c392: x118 <= 150
 c393: x262 <= 50
 c394: x263 <= 50
 c395: x262 >= 0
 c396: x263 >= 0
 c397: x119 >= 0
 c398: x120 >= 0
 c399: x264 <= 1
 c400: x264 >= 0
 c401: x121 >= 50
 c402: x121 <= 150
 c403: x265 <= 50
 c404: x266 <= 50
 c405: x265 >= 0
 c406: x266 >= 0
 c407: x122 >= 0
 c408: x123 >= 0
 c409: x267 <= 1
 c410: x267 >= 0
 c411: x124 >= 50
 c412: x124 <= 150
 c413: x268 <= 50
 c414: x269 <= 50
 c415: x268 >= 0
 c416: x269 >= 0
 c417: x125 >= 0
 c418: x126 >= 0
 c419: x270 <= 1
 c420: x270 >= 0
 c421: x127 >= 50
 c422: x127 <= 150
 c423: x271 <= 50
 c424: x272 <= 50
 c425: x271 >= 0
 c426: x272 >= 0
 c427: x128 >= 0
 c428: x129 >= 0
 c429: x273 <= 1
 c430: x273 >= 0
 c431: x130 >= 50
 c432: x130 <= 150
 c433: x274 <= 50
 c434: x275 <= 50
 c435: x274 >= 0
 c436: x275 >= 0
 c437: x131 >= 0
 c438: x132 >= 0
 c439: x276 <= 1
 c440: x276 >= 0
 c441: x133 >= 50
 c442: x133 <= 150
 c443: x277 <= 50
 c444: x278 <= 50
 c445: x277 >= 0
 c446: x278 >= 0
 c447: x134 >= 0
 c448: x135 >= 0
 c449: x279 <= 1
 c450: x279 >= 0
 c451: x136 >= 50
 c452: x136 <= 150
 c453: x280 <= 50
 c454: x281 <= 50
 c455: x280 >= 0
 c456: x281 >= 0
 c457: x137 >= 0
 c458: x138 >= 0
 c459: x282 <= 1
 c460: x282 >= 0
 c461: x139 >= 50
 c462: x139 <= 150
 c463: x283 <= 50
 c464: x284 <= 50
 c465: x283 >= 0
 c466: x284 >= 0
 c467: x140 >= 0
 c468: x141 >= 0
 c469: x285 <= 1
 c470: x285 >= 0
 c471: x142 >= 50
 c472: x142 <= 150
 c473: x286 <= 50
 c474: x287 <= 50
 c475: x286 >= 0
 c476: x287 >= 0
 c477: x143 >= 0
 c478: x144 >= 0
 c479: x288 <= 1
 c480: x288 >= 0
 c481: x1 + x2 - x3 - x145 + x146  = 159
 c482: x4 + x5 - x6 - x148 + x149  = 160
 c483: x7 + x8 - x9 - x151 + x152  = 159
 c484: x10 + x11 - x12 - x154 + x155  = 148
 c485: x13 + x14 - x15 - x157 + x158  = 153
 c486: x16 + x17 - x18 - x160 + x161  = 157
 c487: x19 + x20 - x21 - x163 + x164  = 235
 c488: x22 + x23 - x24 - x166 + x167  = 230
 c489: x25 + x26 - x27 - x169 + x170  = 203
 c490: x28 + x29 - x30 - x172 + x173  = 201
 c491: x31 + x32 - x33 - x175 + x176  = 210
 c492: x34 + x35 - x36 - x178 + x179  = 220
 c493: x37 + x38 - x39 - x181 + x182  = 180
 c494: x40 + x41 - x42 - x184 + x185  = 160
 c495: x43 + x44 - x45 - x187 + x188  = 150
 c496: x46 + x47 - x48 - x190 + x191  = 160
 c497: x49 + x50 - x51 - x193 + x194  = 130
 c498: x52 + x53 - x54 - x196 + x197  = 130
 c499: x55 + x56 - x57 - x199 + x200  = 170
 c500: x58 + x59 - x60 - x202 + x203  = 200
 c501: x61 + x62 - x63 - x205 + x206  = 235
 c502: x64 + x65 - x66 - x208 + x209  = 250
 c503: x67 + x68 - x69 - x211 + x212  = 200
 c504: x70 + x71 - x72 - x214 + x215  = 150
 c505: x73 + x74 - x75 - x217 + x218  = 60
 c506: x76 + x77 - x78 - x220 + x221  = 45
 c507: x79 + x80 - x81 - x223 + x224  = 30
 c508: x82 + x83 - x84 - x226 + x227  = 20
 c509: x85 + x86 - x87 - x229 + x230  = 25
 c510: x88 + x89 - x90 - x232 + x233  = 100
 c511: x91 + x92 - x93 - x235 + x236  = 116
 c512: x94 + x95 - x96 - x238 + x239  = 90
 c513: x97 + x98 - x99 - x241 + x242  = 95
 c514: x100 + x101 - x102 - x244 + x245  = 100
 c515: x103 + x104 - x105 - x247 + x248  = 95
 c516: x106 + x107 - x108 - x250 + x251  = 100
 c517: x109 + x110 - x111 - x253 + x254  = 95
 c518: x112 + x113 - x114 - x256 + x257  = 95
 c519: x115 + x116 - x117 - x259 + x260  = 140
 c520: x118 + x119 - x120 - x262 + x263  = 120
 c521: x121 + x122 - x123 - x265 + x266  = 125
 c522: x124 + x125 - x126 - x268 + x269  = 120
 c523: x127 + x128 - x129 - x271 + x272  = 115
 c524: x130 + x131 - x132 - x274 + x275  = 110
 c525: x133 + x134 - x135 - x277 + x278  = 95
 c526: x136 + x137 - x138 - x280 + x281  = 90
 c527: x139 + x140 - x141 - x283 + x284  = 80
 c528: x142 + x143 - x144 - x286 + x287  = 175
 c529: - 0.00949999988079071 x145 + 0.0105263161659241 x146 + x147 - x216  = 0
 c530: x145 + 105.263159215615 x216 <= 105.263159215615
 c531: x146 - 94.9999988079071 x216 <= 0
 c532: - x147 - 0.00949999988079071 x148 + 0.0105263161659241 x149 + x150  = 0
 c533: 105.263159215615 x147 + x148 <= 105.263159215615
 c534: - 94.9999988079071 x147 + x149 <= 0
 c535: - x150 - 0.00949999988079071 x151 + 0.0105263161659241 x152 + x153  = 0
 c536: 105.263159215615 x150 + x151 <= 105.263159215615
 c537: - 94.9999988079071 x150 + x152 <= 0
 c538: - x153 - 0.00949999988079071 x154 + 0.0105263161659241 x155 + x156  = 0
 c539: 105.263159215615 x153 + x154 <= 105.263159215615
 c540: - 94.9999988079071 x153 + x155 <= 0
 c541: - x156 - 0.00949999988079071 x157 + 0.0105263161659241 x158 + x159  = 0
 c542: 105.263159215615 x156 + x157 <= 105.263159215615
 c543: - 94.9999988079071 x156 + x158 <= 0
 c544: - x159 - 0.00949999988079071 x160 + 0.0105263161659241 x161 + x162  = 0
 c545: 105.263159215615 x159 + x160 <= 105.263159215615
 c546: - 94.9999988079071 x159 + x161 <= 0
 c547: - x162 - 0.00949999988079071 x163 + 0.0105263161659241 x164 + x165  = 0
 c548: 105.263159215615 x162 + x163 <= 105.263159215615
 c549: - 94.9999988079071 x162 + x164 <= 0
 c550: - x165 - 0.00949999988079071 x166 + 0.0105263161659241 x167 + x168  = 0
 c551: 105.263159215615 x165 + x166 <= 105.263159215615
 c552: - 94.9999988079071 x165 + x167 <= 0
 c553: - x168 - 0.00949999988079071 x169 + 0.0105263161659241 x170 + x171  = 0
 c554: 105.263159215615 x168 + x169 <= 105.263159215615
 c555: - 94.9999988079071 x168 + x170 <= 0
 c556: - x171 - 0.00949999988079071 x172 + 0.0105263161659241 x173 + x174  = 0
 c557: 105.263159215615 x171 + x172 <= 105.263159215615
 c558: - 94.9999988079071 x171 + x173 <= 0
 c559: - x174 - 0.00949999988079071 x175 + 0.0105263161659241 x176 + x177  = 0
 c560: 105.263159215615 x174 + x175 <= 105.263159215615
 c561: - 94.9999988079071 x174 + x176 <= 0
 c562: - x177 - 0.00949999988079071 x178 + 0.0105263161659241 x179 + x180  = 0
 c563: 105.263159215615 x177 + x178 <= 105.263159215615
 c564: - 94.9999988079071 x177 + x179 <= 0
 c565: - x180 - 0.00949999988079071 x181 + 0.0105263161659241 x182 + x183  = 0
 c566: 105.263159215615 x180 + x181 <= 105.263159215615
 c567: - 94.9999988079071 x180 + x182 <= 0
 c568: - x183 - 0.00949999988079071 x184 + 0.0105263161659241 x185 + x186  = 0
 c569: 105.263159215615 x183 + x184 <= 105.263159215615
 c570: - 94.9999988079071 x183 + x185 <= 0
 c571: - x186 - 0.00949999988079071 x187 + 0.0105263161659241 x188 + x189  = 0
 c572: 105.263159215615 x186 + x187 <= 105.263159215615
 c573: - 94.9999988079071 x186 + x188 <= 0
 c574: - x189 - 0.00949999988079071 x190 + 0.0105263161659241 x191 + x192  = 0
 c575: 105.263159215615 x189 + x190 <= 105.263159215615
 c576: - 94.9999988079071 x189 + x191 <= 0
 c577: - x192 - 0.00949999988079071 x193 + 0.0105263161659241 x194 + x195  = 0
 c578: 105.263159215615 x192 + x193 <= 105.263159215615
 c579: - 94.9999988079071 x192 + x194 <= 0
 c580: - x195 - 0.00949999988079071 x196 + 0.0105263161659241 x197 + x198  = 0
 c581: 105.263159215615 x195 + x196 <= 105.263159215615
 c582: - 94.9999988079071 x195 + x197 <= 0
 c583: - x198 - 0.00949999988079071 x199 + 0.0105263161659241 x200 + x201  = 0
 c584: 105.263159215615 x198 + x199 <= 105.263159215615
 c585: - 94.9999988079071 x198 + x200 <= 0
 c586: - x201 - 0.00949999988079071 x202 + 0.0105263161659241 x203 + x204  = 0
 c587: 105.263159215615 x201 + x202 <= 105.263159215615
 c588: - 94.9999988079071 x201 + x203 <= 0
 c589: - x204 - 0.00949999988079071 x205 + 0.0105263161659241 x206 + x207  = 0
 c590: 105.263159215615 x204 + x205 <= 105.263159215615
 c591: - 94.9999988079071 x204 + x206 <= 0
 c592: - x207 - 0.00949999988079071 x208 + 0.0105263161659241 x209 + x210  = 0
 c593: 105.263159215615 x207 + x208 <= 105.263159215615
 c594: - 94.9999988079071 x207 + x209 <= 0
 c595: - x210 - 0.00949999988079071 x211 + 0.0105263161659241 x212 + x213  = 0
 c596: 105.263159215615 x210 + x211 <= 105.263159215615
 c597: - 94.9999988079071 x210 + x212 <= 0
 c598: - x213 - 0.00949999988079071 x214 + 0.0105263161659241 x215 + x216  = 0
 c599: 105.263159215615 x213 + x214 <= 105.263159215615
 c600: - 94.9999988079071 x213 + x215 <= 0
 c601: - 0.00949999988079071 x217 + 0.0105263161659241 x218 + x219 - x288  = 0
 c602: x217 + 105.263159215615 x288 <= 105.263159215615
 c603: x218 - 94.9999988079071 x288 <= 0
 c604: - x219 - 0.00949999988079071 x220 + 0.0105263161659241 x221 + x222  = 0
 c605: 105.263159215615 x219 + x220 <= 105.263159215615
 c606: - 94.9999988079071 x219 + x221 <= 0
 c607: - x222 - 0.00949999988079071 x223 + 0.0105263161659241 x224 + x225  = 0
 c608: 105.263159215615 x222 + x223 <= 105.263159215615
 c609: - 94.9999988079071 x222 + x224 <= 0
 c610: - x225 - 0.00949999988079071 x226 + 0.0105263161659241 x227 + x228  = 0
 c611: 105.263159215615 x225 + x226 <= 105.263159215615
 c612: - 94.9999988079071 x225 + x227 <= 0
 c613: - x228 - 0.00949999988079071 x229 + 0.0105263161659241 x230 + x231  = 0
 c614: 105.263159215615 x228 + x229 <= 105.263159215615
 c615: - 94.9999988079071 x228 + x230 <= 0
 c616: - x231 - 0.00949999988079071 x232 + 0.0105263161659241 x233 + x234  = 0
 c617: 105.263159215615 x231 + x232 <= 105.263159215615
 c618: - 94.9999988079071 x231 + x233 <= 0
 c619: - x234 - 0.00949999988079071 x235 + 0.0105263161659241 x236 + x237  = 0
 c620: 105.263159215615 x234 + x235 <= 105.263159215615
 c621: - 94.9999988079071 x234 + x236 <= 0
 c622: - x237 - 0.00949999988079071 x238 + 0.0105263161659241 x239 + x240  = 0
 c623: 105.263159215615 x237 + x238 <= 105.263159215615
 c624: - 94.9999988079071 x237 + x239 <= 0
 c625: - x240 - 0.00949999988079071 x241 + 0.0105263161659241 x242 + x243  = 0
 c626: 105.263159215615 x240 + x241 <= 105.263159215615
 c627: - 94.9999988079071 x240 + x242 <= 0
 c628: - x243 - 0.00949999988079071 x244 + 0.0105263161659241 x245 + x246  = 0
 c629: 105.263159215615 x243 + x244 <= 105.263159215615
 c630: - 94.9999988079071 x243 + x245 <= 0
 c631: - x246 - 0.00949999988079071 x247 + 0.0105263161659241 x248 + x249  = 0
 c632: 105.263159215615 x246 + x247 <= 105.263159215615
 c633: - 94.9999988079071 x246 + x248 <= 0
 c634: - x249 - 0.00949999988079071 x250 + 0.0105263161659241 x251 + x252  = 0
 c635: 105.263159215615 x249 + x250 <= 105.263159215615
 c636: - 94.9999988079071 x249 + x251 <= 0
 c637: - x252 - 0.00949999988079071 x253 + 0.0105263161659241 x254 + x255  = 0
 c638: 105.263159215615 x252 + x253 <= 105.263159215615
 c639: - 94.9999988079071 x252 + x254 <= 0
 c640: - x255 - 0.00949999988079071 x256 + 0.0105263161659241 x257 + x258  = 0
 c641: 105.263159215615 x255 + x256 <= 105.263159215615
 c642: - 94.9999988079071 x255 + x257 <= 0
 c643: - x258 - 0.00949999988079071 x259 + 0.0105263161659241 x260 + x261  = 0
 c644: 105.263159215615 x258 + x259 <= 105.263159215615
 c645: - 94.9999988079071 x258 + x260 <= 0
 c646: - x261 - 0.00949999988079071 x262 + 0.0105263161659241 x263 + x264  = 0
 c647: 105.263159215615 x261 + x262 <= 105.263159215615
 c648: - 94.9999988079071 x261 + x263 <= 0
 c649: - x264 - 0.00949999988079071 x265 + 0.0105263161659241 x266 + x267  = 0
 c650: 105.263159215615 x264 + x265 <= 105.263159215615
 c651: - 94.9999988079071 x264 + x266 <= 0
 c652: - x267 - 0.00949999988079071 x268 + 0.0105263161659241 x269 + x270  = 0
 c653: 105.263159215615 x267 + x268 <= 105.263159215615
 c654: - 94.9999988079071 x267 + x269 <= 0
 c655: - x270 - 0.00949999988079071 x271 + 0.0105263161659241 x272 + x273  = 0
 c656: 105.263159215615 x270 + x271 <= 105.263159215615
 c657: - 94.9999988079071 x270 + x272 <= 0
 c658: - x273 - 0.00949999988079071 x274 + 0.0105263161659241 x275 + x276  = 0
 c659: 105.263159215615 x273 + x274 <= 105.263159215615
 c660: - 94.9999988079071 x273 + x275 <= 0
 c661: - x276 - 0.00949999988079071 x277 + 0.0105263161659241 x278 + x279  = 0
 c662: 105.263159215615 x276 + x277 <= 105.263159215615
 c663: - 94.9999988079071 x276 + x278 <= 0
 c664: - x279 - 0.00949999988079071 x280 + 0.0105263161659241 x281 + x282  = 0
 c665: 105.263159215615 x279 + x280 <= 105.263159215615
 c666: - 94.9999988079071 x279 + x281 <= 0
 c667: - x282 - 0.00949999988079071 x283 + 0.0105263161659241 x284 + x285  = 0
 c668: 105.263159215615 x282 + x283 <= 105.263159215615
 c669: - 94.9999988079071 x282 + x284 <= 0
 c670: - x285 - 0.00949999988079071 x286 + 0.0105263161659241 x287 + x288  = 0
 c671: 105.263159215615 x285 + x286 <= 105.263159215615
 c672: - 94.9999988079071 x285 + x287 <= 0
Bounds
 0 <= x1 <= 150
 0 <= x4 <= 150
 0 <= x7 <= 150
 0 <= x10 <= 150
 0 <= x13 <= 150
 0 <= x16 <= 150
 0 <= x19 <= 150
 0 <= x22 <= 150
 0 <= x25 <= 150
 0 <= x28 <= 150
 0 <= x31 <= 150
 0 <= x34 <= 150
 0 <= x37 <= 150
 0 <= x40 <= 150
 0 <= x43 <= 150
 0 <= x46 <= 150
 0 <= x49 <= 150
 0 <= x52 <= 150
 0 <= x55 <= 150
 0 <= x58 <= 150
 0 <= x61 <= 150
 0 <= x64 <= 150
 0 <= x67 <= 150
 0 <= x70 <= 150
 0 <= x73 <= 150
 0 <= x76 <= 150
 0 <= x79 <= 150
 0 <= x82 <= 150
 0 <= x85 <= 150
 0 <= x88 <= 150
 0 <= x91 <= 150
 0 <= x94 <= 150
 0 <= x97 <= 150
 0 <= x100 <= 150
 0 <= x103 <= 150
 0 <= x106 <= 150
 0 <= x109 <= 150
 0 <= x112 <= 150
 0 <= x115 <= 150
 0 <= x118 <= 150
 0 <= x121 <= 150
 0 <= x124 <= 150
 0 <= x127 <= 150
 0 <= x130 <= 150
 0 <= x133 <= 150
 0 <= x136 <= 150
 0 <= x139 <= 150
 0 <= x142 <= 150
 0 <= x145 <= 50
 0 <= x146 <= 50
 0 <= x147 <= 1
 0 <= x148 <= 50
 0 <= x149 <= 50
 0 <= x150 <= 1
 0 <= x151 <= 50
 0 <= x152 <= 50
 0 <= x153 <= 1
 0 <= x154 <= 50
 0 <= x155 <= 50
 0 <= x156 <= 1
 0 <= x157 <= 50
 0 <= x158 <= 50
 0 <= x159 <= 1
 0 <= x160 <= 50
 0 <= x161 <= 50
 0 <= x162 <= 1
 0 <= x163 <= 50
 0 <= x164 <= 50
 0 <= x165 <= 1
 0 <= x166 <= 50
 0 <= x167 <= 50
 0 <= x168 <= 1
 0 <= x169 <= 50
 0 <= x170 <= 50
 0 <= x171 <= 1
 0 <= x172 <= 50
 0 <= x173 <= 50
 0 <= x174 <= 1
 0 <= x175 <= 50
 0 <= x176 <= 50
 0 <= x177 <= 1
 0 <= x178 <= 50
 0 <= x179 <= 50
 0 <= x180 <= 1
 0 <= x181 <= 50
 0 <= x182 <= 50
 0 <= x183 <= 1
 0 <= x184 <= 50
 0 <= x185 <= 50
 0 <= x186 <= 1
 0 <= x187 <= 50
 0 <= x188 <= 50
 0 <= x189 <= 1
 0 <= x190 <= 50
 0 <= x191 <= 50
 0 <= x192 <= 1
 0 <= x193 <= 50
 0 <= x194 <= 50
 0 <= x195 <= 1
 0 <= x196 <= 50
 0 <= x197 <= 50
 0 <= x198 <= 1
 0 <= x199 <= 50
 0 <= x200 <= 50
 0 <= x201 <= 1
 0 <= x202 <= 50
 0 <= x203 <= 50
 0 <= x204 <= 1
 0 <= x205 <= 50
 0 <= x206 <= 50
 0 <= x207 <= 1
 0 <= x208 <= 50
 0 <= x209 <= 50
 0 <= x210 <= 1
 0 <= x211 <= 50
 0 <= x212 <= 50
 0 <= x213 <= 1
 0 <= x214 <= 50
 0 <= x215 <= 50
 0 <= x216 <= 1
 0 <= x217 <= 50
 0 <= x218 <= 50
 0 <= x219 <= 1
 0 <= x220 <= 50
 0 <= x221 <= 50
 0 <= x222 <= 1
 0 <= x223 <= 50
 0 <= x224 <= 50
 0 <= x225 <= 1
 0 <= x226 <= 50
 0 <= x227 <= 50
 0 <= x228 <= 1
 0 <= x229 <= 50
 0 <= x230 <= 50
 0 <= x231 <= 1
 0 <= x232 <= 50
 0 <= x233 <= 50
 0 <= x234 <= 1
 0 <= x235 <= 50
 0 <= x236 <= 50
 0 <= x237 <= 1
 0 <= x238 <= 50
 0 <= x239 <= 50
 0 <= x240 <= 1
 0 <= x241 <= 50
 0 <= x242 <= 50
 0 <= x243 <= 1
 0 <= x244 <= 50
 0 <= x245 <= 50
 0 <= x246 <= 1
 0 <= x247 <= 50
 0 <= x248 <= 50
 0 <= x249 <= 1
 0 <= x250 <= 50
 0 <= x251 <= 50
 0 <= x252 <= 1
 0 <= x253 <= 50
 0 <= x254 <= 50
 0 <= x255 <= 1
 0 <= x256 <= 50
 0 <= x257 <= 50
 0 <= x258 <= 1
 0 <= x259 <= 50
 0 <= x260 <= 50
 0 <= x261 <= 1
 0 <= x262 <= 50
 0 <= x263 <= 50
 0 <= x264 <= 1
 0 <= x265 <= 50
 0 <= x266 <= 50
 0 <= x267 <= 1
 0 <= x268 <= 50
 0 <= x269 <= 50
 0 <= x270 <= 1
 0 <= x271 <= 50
 0 <= x272 <= 50
 0 <= x273 <= 1
 0 <= x274 <= 50
 0 <= x275 <= 50
 0 <= x276 <= 1
 0 <= x277 <= 50
 0 <= x278 <= 50
 0 <= x279 <= 1
 0 <= x280 <= 50
 0 <= x281 <= 50
 0 <= x282 <= 1
 0 <= x283 <= 50
 0 <= x284 <= 50
 0 <= x285 <= 1
 0 <= x286 <= 50
 0 <= x287 <= 50
 0 <= x288 <= 1
End
